8,9	0,0	11,1	5,4	0,0	0,0	0,0	0,0	0,0	13,7
7,0	18,5	0,0	11,7	19,7	0,0	0,0	8,6	0,0	0,0
0,0	0,0	16,2	0,0	5,9	9,5	0,0	0,0	19,6	0,0
16,6	0,0	18,7	0,0	0,0	0,0	14,5	0,0	0,0	0,0
0,0	10,9	0,0	7,6	6,2	0,0	0,0	20,0	0,0	0,0
0,0	13,5	10,4	0,0	9,1	5,6	0,0	0,0	11,6	0,0
0,0	12,7	0,0	20,0	0,0	0,0	14,1	0,0	0,0	5,2
7,6	0,0	16,1	0,0	0,0	0,0	0,0	0,0	0,0	12,0
0,0	13,9	0,0	7,0	5,6	0,0	0,0	12,0	0,0	0,0
0,0	0,0	14,9	0,0	0,0	11,6	19,2	0,0	0,0	10,8
									
4,7	4,4	3,8	3,1	2,7	4,5	3,5	3,1	3,7	3,0
